M+/Instances/S1-10-M+/S1-10-10-2-l-M+.txt
     100      10    0.10
       1       3       1       3       2       3       2       2       3       2       2       7       8       5       0       8      12      13       5       9       4
       1       3       1       2       3       2       3       1       1       3      14      14      12      15      12       3      16       5      16      11       5
       3       3       1       2       2       2       3       1       3       1       4      13      11       2       1       5       7       0       0      16       7
       3       3       3       2       2       2       3       1       3       2      11       6       9       7      13      16       3       7       5      11       4
       3       3       1       1       2       1       3       2       2       2      10       6      15       9       6       5       8       7       5      15       5
       3       2       2       3       2       3       3       1       2       2       8      13      12      11      15       0       3       4       7      14       5
       2       1       3       3       1       3       1       1       2       1       9      10      10       1       0       5      10      11      14       9       6
       3       1       1       2       2       1       2       1       3       1       0       4       3      13      14       4      11      14      16       9       6
       1       1       2       3       1       3       2       2       3       3       5      14       1      10      12       6      14       8      11       4       5
       1       3       1       2       1       2       3       3       1       3       4      11      14       9       3       6       5      15       5      14       7
       2       1       3       1       1       1       1       2       2       1       3       2       0      12      11      11      11      13       0       0       5
       1       1       1       2       1       1       2       2       3       3      11      11       7       8       0       0       7       6      13      15       4
       3       2       2       1       1       3       3       2       2       3      16      10       3      12      12       6       2       6       6       5       6
       3       2       2       3       1       3       3       3       3       2      13       2       7      16       8       6      15      16       8       3       4
       1       3       2       3       2       1       2       2       1       3       8       7       3       6       8       5       9      13      10       0       4
       1       3       3       1       2       2       3       3       1       3      12       9      13      10       4      14       9       5       8       6       4
       1       3       2       1       2       1       1       3       2       1      10      10      16       0      15       0       9      12       7      15       7
       2       1       2       3       1       1       3       1       2       1       3       3      16      15       5       8       2       7      13       5       6
       2       1       2       1       1       1       2       2       1       1       9       3      16      14       2       6       7       0       8      12       6
       1       3       3       3       1       3       2       1       2       1       5       5      14       7       2       6      12       1       6      13       5
       2       3       1       1       3       3       2       2       2       2       9      11       6       5       2       4       9       5      12       1       5
       3       1       3       3       1       3       2       1       1       3       8      10      12       3       2      11       2       3      12       5       4
       2       2       2       2       3       3       2       1       2       2      16       7      13       7       5       7      10       3       0       1       7
       1       1       1       1       1       2       2       2       2       1      11       1      12       0       3       1      15      14      15      16       6
       1       1       3       1       1       1       2       3       3       2       3       3       8       3      14       4       0      13      11      10       7
       2       1       2       3       2       2       1       3       2       3       7       6      13       7       1       8       4       4       6       6       4
       3       3       3       3       3       2       1       1       3       3      16       7       4      10       9      14      15       6       9       5       4
       3       2       3       1       3       1       2       3       1       2       9       2       6      14      10      13       0      10       0       2       4
       1       3       2       1       1       3       2       3       2       1      14      10       4       2       6       4       8       0      16      14       7
       3       2       1       1       1       3       2       1       1       3      11       7      15      13      10       0       6       5       4       6       6
       3       1       3       1       1       1       2       2       1       2       8       6       3      15      14      13      12       0      11       2       4
       2       3       3       3       3       2       1       3       3       1      14       6      10       6       0       2       9       5      12      15       7
       1       1       3       3       1       2       2       3       1       2       7      11      13       3       8       2      11       7       3       1       6
       2       2       1       1       2       3       3       1       1       2       8       8       4       4       0      15       3      16       1       3       7
       2       2       1       1       3       2       1       3       2       3      10       9      15      15       0       2      13       1       1       5       4
       2       1       3       3       2       1       1       3       3       2       5       0       9       2       6       4       2      10       5       8       6
       1       1       2       3       3       1       1       2       2       2      16      14       6       4       4       1       6      11      11      15       5
       1       1       3       3       2       3       3       3       2       3      11      15      11       1      12      16       1       6       8      11       7
       1       2       3       1       2       3       3       2       1       2      16       8      16      12       5       2       0      11      11       1       6
       3       1       2       3       2       2       1       3       3       2       6       5       9       8       9       8       5       2      12       3       4
       1       1       2       2       3       1       2       3       3       3      10       6       8      16       2      11       0      11       8      11       5
       3       3       1       2       3       1       2       1       3       2      14       5       6       6       5       7       3      16      16       6       4
       3       3       3       3       2       3       2       2       3       3       8      16      13       3       6       2       9      11       8       2       6
       3       2       2       2       2       1       1       1       1       2      15       1       3       0      14      11       9      16       5      11       6
       3       3       1       1       3       3       1       3       3       1       5       7       6       3       1      12      12      16      11       3       4
       1       3       1       1       2       2       3       2       3       2       8      13      11      13       7       2      13      11      11      15       7
       2       3       1       1       1       1       2       3       1       3       1       7       3       6      14       2       8       4       9      14       5
       1       3       2       2       3       1       1       2       1       3      16      11       7       6      15      12       9       7      13       3       7
       3       2       3       2       2       3       2       3       1       1      16       3      15       5      16       5      15       8       5      15       5
       3       1       3       1       1       1       2       1       3       2      15      13      16      13       9       3       3       4       3       1       7
       2       2       3       3       3       1       1       1       2       3       6       8       5       5       7      11       2       4      12       2       6
       2       2       2       3       3       2       3       1       2       2       2       5      13      16      12       5       9       6       8       5       4
       3       2       1       1       3       3       3       1       1       3       8      11       7      14      11      10      16      14      11       7       5
       3       1       2       3       1       2       3       1       3       2       2       4       2      15       5      15       9       9      14       4       7
       1       1       1       3       3       3       1       1       2       3      16      13      16      16       1      13      15       3       9      12       7
       1       3       3       1       1       2       2       1       2       3      14      10      11       8       5       4      11      14       1       6       4
       1       2       3       2       1       3       2       1       2       2      13      15       8      16       0       6       6       1       4       6       7
       2       2       2       1       1       3       2       1       3       3       4       3       3      12       6       8       3       3      15       4       4
       3       3       1       2       3       2       3       2       3       1      15      14       0      14       9      14      14       0       4       0       4
       2       3       3       2       3       1       1       2       3       1       6      13       3       5      16       6      12      12      15       6       4
       3       1       1       2       2       3       2       1       2       1       5      10      12      16      11       4       3       7       5      13       7
       2       3       3       1       1       1       3       2       2       2      13       6       9       5       6       2       8       4      14      15       4
       1       1       2       1       1       3       1       1       2       1      15      11      10       5      16       3       0       5       9      10       6
       1       1       3       3       3       3       3       1       1       3       0      15      11       8       0       9       5       8       2      13       7
       3       2       3       2       3       2       1       1       2       1       6       2      10      15      13       4      15      13       5       7       5
       2       1       3       2       2       1       3       3       1       3       2      15      15       8      14       4       2      11       7      11       6
       3       1       1       1       1       2       3       1       3       3       2      16       9       5      13       9      16      13      15      13       6
       1       2       3       1       3       1       1       1       3       2       2       2       1      11      16       1      10      13      14      16       5
       2       3       1       2       1       1       3       3       3       3      14       7       4       6       4       1      13      16       7      16       7
       1       1       1       2       3       1       2       3       3       1       0       1       6       3      14       3      14       4       5       3       6
       2       2       3       3       2       3       2       3       3       1      14      16       0      16      11       2      10       6       9      10       7
       2       2       2       2       3       3       1       3       2       3      15       3       9       3      12       1       8      16       0       8       4
       3       3       2       3       3       3       3       3       2       3       5      15       1      14      10       0      16      11      14      10       4
       1       1       3       3       3       3       1       1       2       3       7       6       8       8      12       9       0       6       4       0       6
       3       1       3       1       2       1       1       1       1       2       6       3       1       4       0       5      14      16      14       9       4
       1       2       1       1       3       2       3       3       3       3       3       6       4       4      13       1      10      10      14       4       6
       2       1       1       3       2       2       3       2       1       3       3      14       3       8       6       3      10       1      13       3       7
       2       3       3       2       1       3       3       2       2       2       5       5       9      13       4      14       5       3      16       5       6
       3       1       3       1       2       1       3       3       3       2       3       7      15       3       6       2      16      16      15       9       6
       3       2       3       2       2       1       3       1       2       3      15      11       0       0      12      10       5       3       6      15       5
       1       1       1       1       3       1       3       2       2       2      16      16      15       7       6       7       9      16      10      14       4
       1       3       1       2       3       2       3       1       1       3       4      14       1       4      16       9      15       3       3      15       5
       2       3       3       2       3       3       1       1       3       2      14      13       3      12       6       4       7      16       1      13       7
       2       2       2       1       2       3       3       3       2       1       4       5       0      12      14       9      15      14       8      11       4
       1       3       3       3       1       1       2       2       2       2       5      11       4      15       8       9       7      10       6       4       4
       1       2       3       1       3       1       3       3       1       3       2       3      14      14       2      16      16      14       9      13       4
       1       1       1       3       1       1       3       2       3       1       8      12       7      12      12       1       8       8       0      13       7
       3       1       3       3       3       2       1       1       3       1      14       1       9       6       7       0       1      12      11       0       4
       2       3       2       1       2       1       1       3       2       3       5       0      12       1       9       9       3       7       2       6       7
       2       1       3       3       1       1       3       1       1       1      12       4       3       9      15      15      12      14       5      12       7
       3       1       3       2       2       1       2       1       2       1      15       0      12       3      11       8       6      12      11       2       7
       2       3       2       3       1       1       1       2       2       2      16      14       3      11      14       6       9      14      16       4       6
       1       1       1       2       3       2       1       2       1       1       6       6      15       1       1       6       5      11      12       6       6
       1       2       3       1       1       2       3       2       1       1       8       2       9      13      13       9      11      15      16      14       5
       2       1       1       1       1       1       1       2       1       2       9      11       6      15      15       2       4       8      15      10       7
       1       1       2       1       1       2       2       3       1       2       6       2       7      13      12       4       0       8      15       8       6
       2       2       1       2       1       3       2       3       1       2      14      16       8       4       6       8       0       3       4       9       6
       1       3       3       1       1       1       3       1       1       3       3      11       5      15      15      13      12       5       0       9       4
       2       3       1       3       2       2       3       3       1       3      16       0       6       3      10      11       7       1       6      13       7
       1       3       1       3       1       2       3       1       2       1       6       2       0       4      10       9       7       6       3       3       4
      63      91      76      89      64      70      79      76      86      74
     144     186     194     179     128     173     197     162     215     166
     225     424     274     432     223     188     270     375     415     232